decision_x1=[0,4];
decision_x2=[0,4];
decision_x3=[0,4];
decision_x4=[0,4];
random_y1=[0,4];
random_y2=[0,4];
constraint_x3_x2=[
0,1,1.2|
0,2,2|
0,3,3.6|
0,4,7.2|
1,0,5.1|
1,2,6.6|
1,3,0.79|
1,4,7.1|
2,0,4.6|
2,1,1.7|
2,3,7.2|
2,4,9.6|
3,0,2.7|
3,1,3.9|
3,2,1.5|
3,4,6|
4,0,3.9|
4,1,9.5|
4,2,7.1|
4,3,6.6|
];
constraint_x4_x1=[
0,1,6.7|
0,2,8.5|
0,3,2.9|
0,4,4.9|
1,0,4.7|
1,2,9.6|
1,3,2.5|
1,4,6.4|
2,0,0.72|
2,1,6.4|
2,3,5.4|
2,4,1.2|
3,0,7.4|
3,1,2.7|
3,2,2.2|
3,4,4.7|
4,0,2.5|
4,1,3.6|
4,2,1.5|
4,3,4.5|
];
constraint_x4_x2=[
0,1,6.4|
0,2,5.7|
0,3,5.1|
0,4,2.2|
1,0,4|
1,2,7.5|
1,3,3.6|
1,4,1.5|
2,0,0.52|
2,1,8.8|
2,3,3.8|
2,4,5.2|
3,0,8.2|
3,1,5.7|
3,2,8.4|
3,4,6.4|
4,0,4.8|
4,1,3.5|
4,2,5.8|
4,3,7.5|
];
constraint_x1_y1=[
0,0,2|
0,1,5.4|
0,2,10|
0,3,7|
0,4,1|
1,0,5.2|
1,1,8|
1,2,6.4|
1,3,0.31|
1,4,1.6|
2,0,5.9|
2,1,2.5|
2,2,7.1|
2,3,1.4|
2,4,8.5|
3,0,3|
3,1,2.8|
3,2,8|
3,3,9.2|
3,4,7.7|
4,0,3.5|
4,1,9.7|
4,2,7.5|
4,3,5.2|
4,4,5|
];
constraint_x2_y2=[
0,0,7.9|
0,1,0.54|
0,2,8.3|
0,3,6.4|
0,4,5.1|
1,0,4.4|
1,1,9.6|
1,2,8.3|
1,3,3|
1,4,1.6|
2,0,1.9|
2,1,2.3|
2,2,1|
2,3,3.7|
2,4,1.3|
3,0,5.2|
3,1,1.2|
3,2,7.9|
3,3,5.4|
3,4,7.6|
4,0,7.9|
4,1,0.75|
4,2,3|
4,3,8.2|
4,4,4.6|
];
initial_distribution_y1=[0.03,0.53,0.14,0.18,0.12];
initial_distribution_y2=[0.27,0.037,0.088,0.38,0.22];
transition_y1=[
0.061,0.14,0.41,0.18,0.2|
0.093,0.058,0.12,0.36,0.36|
0.14,0.27,0.25,0.3,0.039|
0.3,0.037,0.14,0.27,0.25|
0.18,0.22,0.25,0.15,0.2|
];
transition_y2=[
0.28,0.0042,0.34,0.2,0.17|
0.33,0.066,0.079,0.31,0.21|
0.0051,0.15,0.16,0.36,0.33|
0.13,0.13,0.26,0.31,0.18|
0.22,0.36,0.062,0.012,0.34|
];
